3 10
264 293 175 
0 13 15 24 34 43 52 22 7 35 23 16 32 2
1 31 36 70 70 4 13 2 47 6 79 70 77 2
2 65 62 27 32 4 3 13 31 6 6 96 65 2
3 49 47 1 1 44 48 21 24 78 13 45 37 1
4 99 96 37 38 91 89 61 78 48 64 6 69 3
5 6 5 61 60 1 6 71 92 83 21 6 40 2
6 80 73 101 99 22 26 62 12 22 84 91 11 1
7 58 55 98 94 36 32 95 69 67 87 19 49 3
8 84 85 56 59 33 26 42 90 67 87 16 48 1
9 62 54 97 100 48 55 24 18 10 27 13 16 3
